ciphers.trafid_cipher/6_sat.smt2
(set-logic ALL)
(declare-const message_VAR String)
(declare-const alphabet_VAR String)
(declare-const period_VAR Int)
(assert (not (< (str.len alphabet_VAR) 0)))
(assert (not (str.contains alphabet_VAR " ")))
(assert (not (< (str.len alphabet_VAR) 0)))
(assert (= (+ 0 (str.indexof alphabet_VAR " " 0)) (- 1)))
(assert (not (< (str.len message_VAR) 0)))
(assert (str.contains message_VAR " "))
(check-sat)
(get-value (message_VAR))
(get-value (alphabet_VAR))
(get-value (period_VAR))
